p cnf 176 626
176 169 0
-176 2 0
-176 -64 0
-176 -63 0
-176 -61 0
-176 -60 0
-176 -59 0
-176 -58 0
-176 -57 0
-169 175 168 0
-169 -175 64 0
-169 -175 -2 0
-169 -175 -63 0
-169 -175 -61 0
-169 -175 -60 0
-169 -175 -59 0
-169 -175 -58 0
-169 -175 -57 0
-169 -168 174 167 0
-169 -168 -174 63 0
-169 -168 -174 -2 0
-169 -168 -174 -64 0
-169 -168 -174 -61 0
-169 -168 -174 -60 0
-169 -168 -174 -59 0
-169 -168 -174 -58 0
-169 -168 -174 -57 0
-169 -168 -167 173 166 0
-169 -168 -167 -173 61 0
-169 -168 -167 -173 -2 0
-169 -168 -167 -173 -64 0
-169 -168 -167 -173 -63 0
-169 -168 -167 -173 -60 0
-169 -168 -167 -173 -59 0
-169 -168 -167 -173 -58 0
-169 -168 -167 -173 -57 0
-169 -168 -167 -166 172 165 0
-169 -168 -167 -166 -172 60 0
-169 -168 -167 -166 -172 -2 0
-169 -168 -167 -166 -172 -64 0
-169 -168 -167 -166 -172 -63 0
-169 -168 -167 -166 -172 -61 0
-169 -168 -167 -166 -172 -59 0
-169 -168 -167 -166 -172 -58 0
-169 -168 -167 -166 -172 -57 0
-169 -168 -167 -166 -165 171 164 0
-169 -168 -167 -166 -165 -171 59 0
-169 -168 -167 -166 -165 -171 -2 0
-169 -168 -167 -166 -165 -171 -64 0
-169 -168 -167 -166 -165 -171 -63 0
-169 -168 -167 -166 -165 -171 -61 0
-169 -168 -167 -166 -165 -171 -60 0
-169 -168 -167 -166 -165 -171 -58 0
-169 -168 -167 -166 -165 -171 -57 0
-169 -168 -167 -166 -165 -164 170 163 0
-169 -168 -167 -166 -165 -164 -170 58 0
-169 -168 -167 -166 -165 -164 -170 -2 0
-169 -168 -167 -166 -165 -164 -170 -64 0
-169 -168 -167 -166 -165 -164 -170 -63 0
-169 -168 -167 -166 -165 -164 -170 -61 0
-169 -168 -167 -166 -165 -164 -170 -60 0
-169 -168 -167 -166 -165 -164 -170 -59 0
-169 -168 -167 -166 -165 -164 -170 -57 0
-169 -168 -167 -166 -165 -164 -163 57 0
-169 -168 -167 -166 -165 -164 -163 -2 0
-169 -168 -167 -166 -165 -164 -163 -64 0
-169 -168 -167 -166 -165 -164 -163 -63 0
-169 -168 -167 -166 -165 -164 -163 -61 0
-169 -168 -167 -166 -165 -164 -163 -60 0
-169 -168 -167 -166 -165 -164 -163 -59 0
-169 -168 -167 -166 -165 -164 -163 -58 0
162 155 0
-162 56 0
-162 -50 0
-162 -51 0
-162 -52 0
-162 -53 0
-162 -54 0
-162 -55 0
-162 -49 0
-155 161 154 0
-155 -161 50 0
-155 -161 -56 0
-155 -161 -51 0
-155 -161 -52 0
-155 -161 -53 0
-155 -161 -54 0
-155 -161 -55 0
-155 -161 -49 0
-155 -154 160 153 0
-155 -154 -160 51 0
-155 -154 -160 -56 0
-155 -154 -160 -50 0
-155 -154 -160 -52 0
-155 -154 -160 -53 0
-155 -154 -160 -54 0
-155 -154 -160 -55 0
-155 -154 -160 -49 0
-155 -154 -153 159 152 0
-155 -154 -153 -159 52 0
-155 -154 -153 -159 -56 0
-155 -154 -153 -159 -50 0
-155 -154 -153 -159 -51 0
-155 -154 -153 -159 -53 0
-155 -154 -153 -159 -54 0
-155 -154 -153 -159 -55 0
-155 -154 -153 -159 -49 0
-155 -154 -153 -152 158 151 0
-155 -154 -153 -152 -158 53 0
-155 -154 -153 -152 -158 -56 0
-155 -154 -153 -152 -158 -50 0
-155 -154 -153 -152 -158 -51 0
-155 -154 -153 -152 -158 -52 0
-155 -154 -153 -152 -158 -54 0
-155 -154 -153 -152 -158 -55 0
-155 -154 -153 -152 -158 -49 0
-155 -154 -153 -152 -151 157 150 0
-155 -154 -153 -152 -151 -157 54 0
-155 -154 -153 -152 -151 -157 -56 0
-155 -154 -153 -152 -151 -157 -50 0
-155 -154 -153 -152 -151 -157 -51 0
-155 -154 -153 -152 -151 -157 -52 0
-155 -154 -153 -152 -151 -157 -53 0
-155 -154 -153 -152 -151 -157 -55 0
-155 -154 -153 -152 -151 -157 -49 0
-155 -154 -153 -152 -151 -150 156 149 0
-155 -154 -153 -152 -151 -150 -156 55 0
-155 -154 -153 -152 -151 -150 -156 -56 0
-155 -154 -153 -152 -151 -150 -156 -50 0
-155 -154 -153 -152 -151 -150 -156 -51 0
-155 -154 -153 -152 -151 -150 -156 -52 0
-155 -154 -153 -152 -151 -150 -156 -53 0
-155 -154 -153 -152 -151 -150 -156 -54 0
-155 -154 -153 -152 -151 -150 -156 -49 0
-155 -154 -153 -152 -151 -150 -149 49 0
-155 -154 -153 -152 -151 -150 -149 -56 0
-155 -154 -153 -152 -151 -150 -149 -50 0
-155 -154 -153 -152 -151 -150 -149 -51 0
-155 -154 -153 -152 -151 -150 -149 -52 0
-155 -154 -153 -152 -151 -150 -149 -53 0
-155 -154 -153 -152 -151 -150 -149 -54 0
-155 -154 -153 -152 -151 -150 -149 -55 0
148 141 0
-148 48 0
-148 -42 0
-148 -43 0
-148 -44 0
-148 -45 0
-148 -46 0
-148 -47 0
-148 -41 0
-141 147 140 0
-141 -147 42 0
-141 -147 -48 0
-141 -147 -43 0
-141 -147 -44 0
-141 -147 -45 0
-141 -147 -46 0
-141 -147 -47 0
-141 -147 -41 0
-141 -140 146 139 0
-141 -140 -146 43 0
-141 -140 -146 -48 0
-141 -140 -146 -42 0
-141 -140 -146 -44 0
-141 -140 -146 -45 0
-141 -140 -146 -46 0
-141 -140 -146 -47 0
-141 -140 -146 -41 0
-141 -140 -139 145 138 0
-141 -140 -139 -145 44 0
-141 -140 -139 -145 -48 0
-141 -140 -139 -145 -42 0
-141 -140 -139 -145 -43 0
-141 -140 -139 -145 -45 0
-141 -140 -139 -145 -46 0
-141 -140 -139 -145 -47 0
-141 -140 -139 -145 -41 0
-141 -140 -139 -138 144 137 0
-141 -140 -139 -138 -144 45 0
-141 -140 -139 -138 -144 -48 0
-141 -140 -139 -138 -144 -42 0
-141 -140 -139 -138 -144 -43 0
-141 -140 -139 -138 -144 -44 0
-141 -140 -139 -138 -144 -46 0
-141 -140 -139 -138 -144 -47 0
-141 -140 -139 -138 -144 -41 0
-141 -140 -139 -138 -137 143 136 0
-141 -140 -139 -138 -137 -143 46 0
-141 -140 -139 -138 -137 -143 -48 0
-141 -140 -139 -138 -137 -143 -42 0
-141 -140 -139 -138 -137 -143 -43 0
-141 -140 -139 -138 -137 -143 -44 0
-141 -140 -139 -138 -137 -143 -45 0
-141 -140 -139 -138 -137 -143 -47 0
-141 -140 -139 -138 -137 -143 -41 0
-141 -140 -139 -138 -137 -136 142 135 0
-141 -140 -139 -138 -137 -136 -142 47 0
-141 -140 -139 -138 -137 -136 -142 -48 0
-141 -140 -139 -138 -137 -136 -142 -42 0
-141 -140 -139 -138 -137 -136 -142 -43 0
-141 -140 -139 -138 -137 -136 -142 -44 0
-141 -140 -139 -138 -137 -136 -142 -45 0
-141 -140 -139 -138 -137 -136 -142 -46 0
-141 -140 -139 -138 -137 -136 -142 -41 0
-141 -140 -139 -138 -137 -136 -135 41 0
-141 -140 -139 -138 -137 -136 -135 -48 0
-141 -140 -139 -138 -137 -136 -135 -42 0
-141 -140 -139 -138 -137 -136 -135 -43 0
-141 -140 -139 -138 -137 -136 -135 -44 0
-141 -140 -139 -138 -137 -136 -135 -45 0
-141 -140 -139 -138 -137 -136 -135 -46 0
-141 -140 -139 -138 -137 -136 -135 -47 0
134 127 0
-134 40 0
-134 -34 0
-134 -35 0
-134 -36 0
-134 -37 0
-134 -38 0
-134 -39 0
-134 -33 0
-127 133 126 0
-127 -133 34 0
-127 -133 -40 0
-127 -133 -35 0
-127 -133 -36 0
-127 -133 -37 0
-127 -133 -38 0
-127 -133 -39 0
-127 -133 -33 0
-127 -126 132 125 0
-127 -126 -132 35 0
-127 -126 -132 -40 0
-127 -126 -132 -34 0
-127 -126 -132 -36 0
-127 -126 -132 -37 0
-127 -126 -132 -38 0
-127 -126 -132 -39 0
-127 -126 -132 -33 0
-127 -126 -125 131 124 0
-127 -126 -125 -131 36 0
-127 -126 -125 -131 -40 0
-127 -126 -125 -131 -34 0
-127 -126 -125 -131 -35 0
-127 -126 -125 -131 -37 0
-127 -126 -125 -131 -38 0
-127 -126 -125 -131 -39 0
-127 -126 -125 -131 -33 0
-127 -126 -125 -124 130 123 0
-127 -126 -125 -124 -130 37 0
-127 -126 -125 -124 -130 -40 0
-127 -126 -125 -124 -130 -34 0
-127 -126 -125 -124 -130 -35 0
-127 -126 -125 -124 -130 -36 0
-127 -126 -125 -124 -130 -38 0
-127 -126 -125 -124 -130 -39 0
-127 -126 -125 -124 -130 -33 0
-127 -126 -125 -124 -123 129 122 0
-127 -126 -125 -124 -123 -129 38 0
-127 -126 -125 -124 -123 -129 -40 0
-127 -126 -125 -124 -123 -129 -34 0
-127 -126 -125 -124 -123 -129 -35 0
-127 -126 -125 -124 -123 -129 -36 0
-127 -126 -125 -124 -123 -129 -37 0
-127 -126 -125 -124 -123 -129 -39 0
-127 -126 -125 -124 -123 -129 -33 0
-127 -126 -125 -124 -123 -122 128 121 0
-127 -126 -125 -124 -123 -122 -128 39 0
-127 -126 -125 -124 -123 -122 -128 -40 0
-127 -126 -125 -124 -123 -122 -128 -34 0
-127 -126 -125 -124 -123 -122 -128 -35 0
-127 -126 -125 -124 -123 -122 -128 -36 0
-127 -126 -125 -124 -123 -122 -128 -37 0
-127 -126 -125 -124 -123 -122 -128 -38 0
-127 -126 -125 -124 -123 -122 -128 -33 0
-127 -126 -125 -124 -123 -122 -121 33 0
-127 -126 -125 -124 -123 -122 -121 -40 0
-127 -126 -125 -124 -123 -122 -121 -34 0
-127 -126 -125 -124 -123 -122 -121 -35 0
-127 -126 -125 -124 -123 -122 -121 -36 0
-127 -126 -125 -124 -123 -122 -121 -37 0
-127 -126 -125 -124 -123 -122 -121 -38 0
-127 -126 -125 -124 -123 -122 -121 -39 0
120 113 0
-120 32 0
-120 -26 0
-120 -27 0
-120 -28 0
-120 -29 0
-120 -30 0
-120 -31 0
-120 -25 0
-113 119 112 0
-113 -119 26 0
-113 -119 -32 0
-113 -119 -27 0
-113 -119 -28 0
-113 -119 -29 0
-113 -119 -30 0
-113 -119 -31 0
-113 -119 -25 0
-113 -112 118 111 0
-113 -112 -118 27 0
-113 -112 -118 -32 0
-113 -112 -118 -26 0
-113 -112 -118 -28 0
-113 -112 -118 -29 0
-113 -112 -118 -30 0
-113 -112 -118 -31 0
-113 -112 -118 -25 0
-113 -112 -111 117 110 0
-113 -112 -111 -117 28 0
-113 -112 -111 -117 -32 0
-113 -112 -111 -117 -26 0
-113 -112 -111 -117 -27 0
-113 -112 -111 -117 -29 0
-113 -112 -111 -117 -30 0
-113 -112 -111 -117 -31 0
-113 -112 -111 -117 -25 0
-113 -112 -111 -110 116 109 0
-113 -112 -111 -110 -116 29 0
-113 -112 -111 -110 -116 -32 0
-113 -112 -111 -110 -116 -26 0
-113 -112 -111 -110 -116 -27 0
-113 -112 -111 -110 -116 -28 0
-113 -112 -111 -110 -116 -30 0
-113 -112 -111 -110 -116 -31 0
-113 -112 -111 -110 -116 -25 0
-113 -112 -111 -110 -109 115 108 0
-113 -112 -111 -110 -109 -115 30 0
-113 -112 -111 -110 -109 -115 -32 0
-113 -112 -111 -110 -109 -115 -26 0
-113 -112 -111 -110 -109 -115 -27 0
-113 -112 -111 -110 -109 -115 -28 0
-113 -112 -111 -110 -109 -115 -29 0
-113 -112 -111 -110 -109 -115 -31 0
-113 -112 -111 -110 -109 -115 -25 0
-113 -112 -111 -110 -109 -108 114 107 0
-113 -112 -111 -110 -109 -108 -114 31 0
-113 -112 -111 -110 -109 -108 -114 -32 0
-113 -112 -111 -110 -109 -108 -114 -26 0
-113 -112 -111 -110 -109 -108 -114 -27 0
-113 -112 -111 -110 -109 -108 -114 -28 0
-113 -112 -111 -110 -109 -108 -114 -29 0
-113 -112 -111 -110 -109 -108 -114 -30 0
-113 -112 -111 -110 -109 -108 -114 -25 0
-113 -112 -111 -110 -109 -108 -107 25 0
-113 -112 -111 -110 -109 -108 -107 -32 0
-113 -112 -111 -110 -109 -108 -107 -26 0
-113 -112 -111 -110 -109 -108 -107 -27 0
-113 -112 -111 -110 -109 -108 -107 -28 0
-113 -112 -111 -110 -109 -108 -107 -29 0
-113 -112 -111 -110 -109 -108 -107 -30 0
-113 -112 -111 -110 -109 -108 -107 -31 0
106 99 0
-106 24 0
-106 -18 0
-106 -19 0
-106 -20 0
-106 -21 0
-106 -22 0
-106 -23 0
-106 -17 0
-99 105 98 0
-99 -105 18 0
-99 -105 -24 0
-99 -105 -19 0
-99 -105 -20 0
-99 -105 -21 0
-99 -105 -22 0
-99 -105 -23 0
-99 -105 -17 0
-99 -98 104 97 0
-99 -98 -104 19 0
-99 -98 -104 -24 0
-99 -98 -104 -18 0
-99 -98 -104 -20 0
-99 -98 -104 -21 0
-99 -98 -104 -22 0
-99 -98 -104 -23 0
-99 -98 -104 -17 0
-99 -98 -97 103 96 0
-99 -98 -97 -103 20 0
-99 -98 -97 -103 -24 0
-99 -98 -97 -103 -18 0
-99 -98 -97 -103 -19 0
-99 -98 -97 -103 -21 0
-99 -98 -97 -103 -22 0
-99 -98 -97 -103 -23 0
-99 -98 -97 -103 -17 0
-99 -98 -97 -96 102 95 0
-99 -98 -97 -96 -102 21 0
-99 -98 -97 -96 -102 -24 0
-99 -98 -97 -96 -102 -18 0
-99 -98 -97 -96 -102 -19 0
-99 -98 -97 -96 -102 -20 0
-99 -98 -97 -96 -102 -22 0
-99 -98 -97 -96 -102 -23 0
-99 -98 -97 -96 -102 -17 0
-99 -98 -97 -96 -95 101 94 0
-99 -98 -97 -96 -95 -101 22 0
-99 -98 -97 -96 -95 -101 -24 0
-99 -98 -97 -96 -95 -101 -18 0
-99 -98 -97 -96 -95 -101 -19 0
-99 -98 -97 -96 -95 -101 -20 0
-99 -98 -97 -96 -95 -101 -21 0
-99 -98 -97 -96 -95 -101 -23 0
-99 -98 -97 -96 -95 -101 -17 0
-99 -98 -97 -96 -95 -94 100 93 0
-99 -98 -97 -96 -95 -94 -100 23 0
-99 -98 -97 -96 -95 -94 -100 -24 0
-99 -98 -97 -96 -95 -94 -100 -18 0
-99 -98 -97 -96 -95 -94 -100 -19 0
-99 -98 -97 -96 -95 -94 -100 -20 0
-99 -98 -97 -96 -95 -94 -100 -21 0
-99 -98 -97 -96 -95 -94 -100 -22 0
-99 -98 -97 -96 -95 -94 -100 -17 0
-99 -98 -97 -96 -95 -94 -93 17 0
-99 -98 -97 -96 -95 -94 -93 -24 0
-99 -98 -97 -96 -95 -94 -93 -18 0
-99 -98 -97 -96 -95 -94 -93 -19 0
-99 -98 -97 -96 -95 -94 -93 -20 0
-99 -98 -97 -96 -95 -94 -93 -21 0
-99 -98 -97 -96 -95 -94 -93 -22 0
-99 -98 -97 -96 -95 -94 -93 -23 0
92 85 0
-92 16 0
-92 -10 0
-92 -11 0
-92 -12 0
-92 -13 0
-92 -14 0
-92 -15 0
-92 -9 0
-85 91 84 0
-85 -91 10 0
-85 -91 -16 0
-85 -91 -11 0
-85 -91 -12 0
-85 -91 -13 0
-85 -91 -14 0
-85 -91 -15 0
-85 -91 -9 0
-85 -84 90 83 0
-85 -84 -90 11 0
-85 -84 -90 -16 0
-85 -84 -90 -10 0
-85 -84 -90 -12 0
-85 -84 -90 -13 0
-85 -84 -90 -14 0
-85 -84 -90 -15 0
-85 -84 -90 -9 0
-85 -84 -83 89 82 0
-85 -84 -83 -89 12 0
-85 -84 -83 -89 -16 0
-85 -84 -83 -89 -10 0
-85 -84 -83 -89 -11 0
-85 -84 -83 -89 -13 0
-85 -84 -83 -89 -14 0
-85 -84 -83 -89 -15 0
-85 -84 -83 -89 -9 0
-85 -84 -83 -82 88 81 0
-85 -84 -83 -82 -88 13 0
-85 -84 -83 -82 -88 -16 0
-85 -84 -83 -82 -88 -10 0
-85 -84 -83 -82 -88 -11 0
-85 -84 -83 -82 -88 -12 0
-85 -84 -83 -82 -88 -14 0
-85 -84 -83 -82 -88 -15 0
-85 -84 -83 -82 -88 -9 0
-85 -84 -83 -82 -81 87 80 0
-85 -84 -83 -82 -81 -87 14 0
-85 -84 -83 -82 -81 -87 -16 0
-85 -84 -83 -82 -81 -87 -10 0
-85 -84 -83 -82 -81 -87 -11 0
-85 -84 -83 -82 -81 -87 -12 0
-85 -84 -83 -82 -81 -87 -13 0
-85 -84 -83 -82 -81 -87 -15 0
-85 -84 -83 -82 -81 -87 -9 0
-85 -84 -83 -82 -81 -80 86 79 0
-85 -84 -83 -82 -81 -80 -86 15 0
-85 -84 -83 -82 -81 -80 -86 -16 0
-85 -84 -83 -82 -81 -80 -86 -10 0
-85 -84 -83 -82 -81 -80 -86 -11 0
-85 -84 -83 -82 -81 -80 -86 -12 0
-85 -84 -83 -82 -81 -80 -86 -13 0
-85 -84 -83 -82 -81 -80 -86 -14 0
-85 -84 -83 -82 -81 -80 -86 -9 0
-85 -84 -83 -82 -81 -80 -79 9 0
-85 -84 -83 -82 -81 -80 -79 -16 0
-85 -84 -83 -82 -81 -80 -79 -10 0
-85 -84 -83 -82 -81 -80 -79 -11 0
-85 -84 -83 -82 -81 -80 -79 -12 0
-85 -84 -83 -82 -81 -80 -79 -13 0
-85 -84 -83 -82 -81 -80 -79 -14 0
-85 -84 -83 -82 -81 -80 -79 -15 0
78 71 0
-78 8 0
-78 -1 0
-78 -3 0
-78 -4 0
-78 -5 0
-78 -6 0
-78 -7 0
-78 -62 0
-71 77 70 0
-71 -77 1 0
-71 -77 -8 0
-71 -77 -3 0
-71 -77 -4 0
-71 -77 -5 0
-71 -77 -6 0
-71 -77 -7 0
-71 -77 -62 0
-71 -70 76 69 0
-71 -70 -76 3 0
-71 -70 -76 -8 0
-71 -70 -76 -1 0
-71 -70 -76 -4 0
-71 -70 -76 -5 0
-71 -70 -76 -6 0
-71 -70 -76 -7 0
-71 -70 -76 -62 0
-71 -70 -69 75 68 0
-71 -70 -69 -75 4 0
-71 -70 -69 -75 -8 0
-71 -70 -69 -75 -1 0
-71 -70 -69 -75 -3 0
-71 -70 -69 -75 -5 0
-71 -70 -69 -75 -6 0
-71 -70 -69 -75 -7 0
-71 -70 -69 -75 -62 0
-71 -70 -69 -68 74 67 0
-71 -70 -69 -68 -74 5 0
-71 -70 -69 -68 -74 -8 0
-71 -70 -69 -68 -74 -1 0
-71 -70 -69 -68 -74 -3 0
-71 -70 -69 -68 -74 -4 0
-71 -70 -69 -68 -74 -6 0
-71 -70 -69 -68 -74 -7 0
-71 -70 -69 -68 -74 -62 0
-71 -70 -69 -68 -67 73 66 0
-71 -70 -69 -68 -67 -73 6 0
-71 -70 -69 -68 -67 -73 -8 0
-71 -70 -69 -68 -67 -73 -1 0
-71 -70 -69 -68 -67 -73 -3 0
-71 -70 -69 -68 -67 -73 -4 0
-71 -70 -69 -68 -67 -73 -5 0
-71 -70 -69 -68 -67 -73 -7 0
-71 -70 -69 -68 -67 -73 -62 0
-71 -70 -69 -68 -67 -66 72 65 0
-71 -70 -69 -68 -67 -66 -72 7 0
-71 -70 -69 -68 -67 -66 -72 -8 0
-71 -70 -69 -68 -67 -66 -72 -1 0
-71 -70 -69 -68 -67 -66 -72 -3 0
-71 -70 -69 -68 -67 -66 -72 -4 0
-71 -70 -69 -68 -67 -66 -72 -5 0
-71 -70 -69 -68 -67 -66 -72 -6 0
-71 -70 -69 -68 -67 -66 -72 -62 0
-71 -70 -69 -68 -67 -66 -65 62 0
-71 -70 -69 -68 -67 -66 -65 -8 0
-71 -70 -69 -68 -67 -66 -65 -1 0
-71 -70 -69 -68 -67 -66 -65 -3 0
-71 -70 -69 -68 -67 -66 -65 -4 0
-71 -70 -69 -68 -67 -66 -65 -5 0
-71 -70 -69 -68 -67 -66 -65 -6 0
-71 -70 -69 -68 -67 -66 -65 -7 0
-2 50 49 0
-56 42 41 0
-48 34 33 0
-40 26 25 0
-32 18 17 0
-24 10 9 0
-16 1 62 0
-64 56 49 55 54 53 52 51 -50 0
-50 48 41 47 46 45 44 43 -42 0
-42 40 33 39 38 37 36 35 -34 0
-34 32 25 31 30 29 28 27 -26 0
-26 24 17 23 22 21 20 19 -18 0
-18 16 9 15 14 13 12 11 -10 0
-10 8 62 7 6 5 4 3 -1 0
49 -63 0
41 -51 0
33 -43 0
25 -35 0
17 -27 0
9 -19 0
62 -11 0
51 -61 0
43 -52 0
35 -44 0
27 -36 0
19 -28 0
11 -20 0
3 -12 0
52 -60 0
44 -53 0
36 -45 0
28 -37 0
20 -29 0
12 -21 0
4 -13 0
53 -59 0
45 -54 0
37 -46 0
29 -38 0
21 -30 0
13 -22 0
5 -14 0
-58 56 54 0
-55 48 46 0
-47 40 38 0
-39 32 30 0
-31 24 22 0
-23 16 14 0
-15 8 6 0
-57 56 50 55 54 53 52 51 -50 0
-49 48 42 47 46 45 44 43 -42 0
-41 40 34 39 38 37 36 35 -34 0
-33 32 26 31 30 29 28 27 -26 0
-25 24 18 23 22 21 20 19 -18 0
-17 16 10 15 14 13 12 11 -10 0
-9 8 1 7 6 5 4 3 -1 0
2 0
1 0
